c Result of efficient AIG-to-CNF conversion using package CNF
p cnf 132 169
2 -3 -14 -19 24 0
-2 19 0
-2 -24 0
-2 3 0
-2 14 0
3 -4 -9 0
-3 4 0
-3 9 0
4 -5 -6 -7 -8 0
-4 8 0
-4 5 0
-4 7 0
-4 6 0
5 36 37 38 39 0
-5 -39 0
-5 -38 0
-5 -36 0
-5 -37 0
6 40 41 42 43 0
-6 -43 0
-6 -42 0
-6 -40 0
-6 -41 0
7 44 45 46 47 0
-7 -47 0
-7 -46 0
-7 -44 0
-7 -45 0
8 48 49 50 51 0
-8 -51 0
-8 -50 0
-8 -48 0
-8 -49 0
9 -10 -11 -12 -13 0
-9 13 0
-9 10 0
-9 12 0
-9 11 0
10 52 53 54 55 0
-10 -55 0
-10 -54 0
-10 -52 0
-10 -53 0
11 56 57 58 59 0
-11 -59 0
-11 -58 0
-11 -56 0
-11 -57 0
12 60 61 62 63 0
-12 -63 0
-12 -62 0
-12 -60 0
-12 -61 0
13 64 65 66 67 0
-13 -67 0
-13 -66 0
-13 -64 0
-13 -65 0
14 -15 -16 -17 -18 0
-14 18 0
-14 15 0
-14 17 0
-14 16 0
15 68 69 70 71 0
-15 -71 0
-15 -70 0
-15 -68 0
-15 -69 0
16 72 73 74 75 0
-16 -75 0
-16 -74 0
-16 -72 0
-16 -73 0
17 76 77 78 79 0
-17 -79 0
-17 -78 0
-17 -76 0
-17 -77 0
18 80 81 82 83 0
-18 -83 0
-18 -82 0
-18 -80 0
-18 -81 0
19 -20 -21 -22 -23 0
-19 23 0
-19 20 0
-19 22 0
-19 21 0
20 84 85 86 87 0
-20 -87 0
-20 -86 0
-20 -84 0
-20 -85 0
21 88 89 90 91 0
-21 -91 0
-21 -90 0
-21 -88 0
-21 -89 0
22 92 93 94 95 0
-22 -95 0
-22 -94 0
-22 -92 0
-22 -93 0
23 96 97 98 99 0
-23 -99 0
-23 -98 0
-23 -96 0
-23 -97 0
24 -9 -14 -19 -25 0
-24 25 0
-24 9 0
-24 19 0
-24 14 0
25 -4 31 0
25 -4 26 0
-25 4 0
-25 -26 -31 0
26 -27 -28 -29 -30 0
-26 30 0
-26 27 0
-26 29 0
-26 28 0
27 100 101 102 103 0
-27 -103 0
-27 -102 0
-27 -100 0
-27 -101 0
28 104 105 106 107 0
-28 -107 0
-28 -106 0
-28 -104 0
-28 -105 0
29 108 109 110 111 0
-29 -111 0
-29 -110 0
-29 -108 0
-29 -109 0
30 112 113 114 115 0
-30 -115 0
-30 -114 0
-30 -112 0
-30 -113 0
31 -32 -33 -34 -35 0
-31 35 0
-31 32 0
-31 34 0
-31 33 0
32 116 117 118 119 0
-32 -119 0
-32 -118 0
-32 -116 0
-32 -117 0
33 120 121 122 123 0
-33 -123 0
-33 -122 0
-33 -120 0
-33 -121 0
34 124 125 126 127 0
-34 -127 0
-34 -126 0
-34 -124 0
-34 -125 0
35 128 129 130 131 0
-35 -131 0
-35 -130 0
-35 -128 0
-35 -129 0
132 0
-2 0
cr 68 69 70 71 72 73 74 75 76 77 78 79 80 81 82 83 108 109 110 111 112 113 114 115 84 85 86 87 88 89 90 91 92 93 94 95 96 97 98 99 52 53 54 55 56 57 58 59 116 117 118 119 120 121 122 123 124 125 126 127 128 129 130 131 60 61 62 63 64 65 66 67 36 37 38 39 40 41 42 43 100 101 102 103 104 105 106 107 44 45 46 47 48 49 50 51
